num_core     = 2
npool        = 1
ndiag        = 36
qe_launcher  = "pw.x"
mpi_launcher = "srun --cpu_bind=cores -c 2"

max_iter     = 100
temperature  = 500
if_test      = 1

begin_action_probability (add remove swap)
0.0 1.0 1.0

h_min = 6
h_max = 15

num_ele = 2
num_atm = 8

begin_elements (element mass mu r_min r_max add_p)
Na  22.990  -1196.2733922  1.0  3.0  0.5
Sb  121.76  -2119.4243232  2.0  3.0  0.5

begin_lattice
 5.314320151    0.000000000    0.000000000
-2.657160075    4.602336255    0.000000000
 0.000000000    0.000000000    22.0

begin_atom_positions
Na     0.000000000    3.068224167    8.654790619 2
Na     2.657160073    1.534112083    3.931576013 2
Na     0.000000000    0.000000000    2.353489036 2
Na     0.000000000    0.000000000    7.078432691 2
Na     0.000000000    3.068224167    5.500345714 2
Na     2.657160073    1.534112083    0.777131108 0
Sb     2.657160073    1.534112083    7.058538401 1
Sb     0.000000000    3.068224167    2.373383326 2

begin_qe_input
&CONTROL
  calculation       = 'relax'
  pseudo_dir        = './'
  outdir            = './'
  prefix            = 'GCMC'
  nstep             = 100
  forc_conv_thr     = 1.d-2
  etot_conv_thr     = 1.d-3
  verbosity         = 'high'
  tprnfor           = .TRUE.
  tstress           = .TRUE.
  disk_io           = 'low'
  wf_collect        = .TRUE.
! restart_mode      = 'restart'
/

&SYSTEM
! input_dft         = 'PBESOL'
  ibrav             = 0
  ecutwfc           = 50
  occupations       = 'smearing'
  smearing          = 'gaussian'
  degauss           = 0.001
  nat               =
  ntyp              = 2
! lspinorb          = .TRUE.
! nbnd              = 36
! nosym             = .TRUE.
/

&ELECTRONS 
  mixing_mode       = 'local-TF'
  mixing_beta       = 0.7
  conv_thr          = 1.0e-4
  electron_maxstep  = 100
! startingpot       = 'file'
! startingwfc       = 'file'
  diagonalization   = 'david'
/

&IONS
  ion_dynamics      = 'bfgs'
  pot_extrapolation = 'atomic'
  upscale           = 100
  trust_radius_ini  = 0.05
/

&CELL
  cell_dynamics     = 'bfgs'
  cell_dofree       = 'all'
  press_conv_thr    = 0.002
/

ATOMIC_SPECIES
Na  22.990  na_srl_gga.upf
Sb  121.76  sb_frl_gga.upf

K_POINTS (gamma)
end_qe_input
