num_core     = 2
npool        = 3
ndiag        = 16
qe_launcher  = "./pw.x"
mpi_launcher = "mpirun"
mpi_launcher = "srun --cpu_bind=cores -c 2"

max_iter     = 10
temperature  = 500
if_test      = 1

begin_action_probability (add remove swap)
1.0 1.0 1.0

h_min = 0
h_max = 9.0

num_ele = 3
num_atm = 4

begin_elements (element mass mu r_min r_max add_p)
He 2   0.001 2 3  1.0
Ne 8   0.001 2 3  1.0
Ar 18  0.001 2 3  1.0

begin_lattice
6 0 0
-0.6 6 0
0 0 15

begin_atom_positions
He 1 1 1 0
Ar 2 2 2 1
Ar 3 3 3 0
Ne 4 4 4 1

begin_qe_input
&CONTROL
  calculation       = 'relax'
  pseudo_dir        = './'
  outdir            = './'
  prefix            = 'GCMC'
  nstep             = 100
  forc_conv_thr     = 1.d-6
  etot_conv_thr     = 1.d-8
  verbosity         = 'high'
  tprnfor           = .TRUE.
  tstress           = .TRUE.
  disk_io           = 'low'
  wf_collect        = .TRUE.
! restart_mode      = 'restart'
/

&SYSTEM
! input_dft         = 'PBESOL'
  ibrav             = 0
  ecutwfc           = 50
  occupations       = 'smearing'
  smearing          = 'gaussian'
  degauss           = 0.001
  nat               =
  ntyp              = 3
! lspinorb          = .TRUE.
! nbnd              = 36
! nosym             = .TRUE.
/

&ELECTRONS 
  mixing_mode       = 'local-TF'
  mixing_beta       = 0.7
  conv_thr          = 1.0e-10
  electron_maxstep  = 100
! startingpot       = 'file'
! startingwfc       = 'file'
  diagonalization   = 'david'
/

&IONS
  ion_dynamics      = 'bfgs'
  pot_extrapolation = 'atomic'
  upscale           = 100
  trust_radius_ini  = 0.05
/

&CELL
  cell_dynamics     = 'bfgs'
  cell_dofree       = 'all'
  press_conv_thr    = 0.002
/

ATOMIC_SPECIES
Na  22.98   na.upf   
Zn  65.38   zn.upf
Sb  121.76  sb.upf

K_POINTS (automatic)
8 8 8 0 0 0
end_qe_input

CELL_PARAMETERS (angstrom)
   4.571961955   0.001727263   0.000000891
  -2.287290760   3.958679109   0.000000925
  -0.000001419  -0.000002522   7.345719642

ATOMIC_POSITIONS (crystal)
Na       1.000017664  -0.000017613   1.011535183
Na      -0.000017613   1.000017643   0.511535554
Zn       0.333334667   0.666665167   0.691670440
Zn       0.666665328   0.333334835   0.191671815
Sb       0.333327065   0.666672975   0.296794706
Sb       0.666672843   0.333326939   0.796792283
